\Problem name: compact

Minimize
OBJROW: C
Subject To
ord(0,1):  - x(0,1) + x(0,2) >= 7
ord(0,2):  x(0,0) - x(0,2) >= 7
ord(1,1):  x(1,0) - x(1,1) >= 4
ord(1,2):  - x(1,0) + x(1,2) >= 3
ord(2,1):  - x(2,1) + x(2,2) >= 7
ord(2,2):  x(2,0) - x(2,2) >= 6
triangle2(0,1,0):  y(0,1,0) + y(1,0,0) = 1
triangle2(0,1,1):  y(0,1,1) + y(1,0,1) = 1
triangle2(0,1,2):  y(0,1,2) + y(1,0,2) = 1
triangle2(0,2,0):  y(0,2,0) + y(2,0,0) = 1
triangle2(0,2,1):  y(0,2,1) + y(2,0,1) = 1
triangle2(0,2,2):  y(0,2,2) + y(2,0,2) = 1
triangle2(1,2,0):  y(1,2,0) + y(2,1,0) = 1
triangle2(1,2,1):  y(1,2,1) + y(2,1,1) = 1
triangle2(1,2,2):  y(1,2,2) + y(2,1,2) = 1
MCLinV(0,1,0):  - x(0,0) + v(0,1,0)p - v(0,1,0)n + x(1,0) = -3
MCLinV(1,0,0):  x(0,0) + v(1,0,0)p - v(1,0,0)n - x(1,0) = -1
MCLin1(0,1,0):  u(0,1,0)p - u(0,1,0)n >= 0
MCLin2(0,1,0):  23 y(1,0,0) + u(0,1,0)p - u(0,1,0)n >= 0
MCLin3(0,1,0):  -36 y(1,0,0) - v(0,1,0)p + v(0,1,0)n + u(0,1,0)p - u(0,1,0)n >= -36
MCLin4(0,1,0):  -36 y(1,0,0) + u(0,1,0)p - u(0,1,0)n <= 0
MCLin5(0,1,0):  23 y(1,0,0) - v(0,1,0)p + v(0,1,0)n + u(0,1,0)p - u(0,1,0)n <= 23
MCLin6(1,0,0):  u(1,0,0)p - u(1,0,0)n >= 0
MCLin7(1,0,0):  40 y(0,1,0) + u(1,0,0)p - u(1,0,0)n >= 0
MCLin8(1,0,0):  -19 y(0,1,0) - v(1,0,0)p + v(1,0,0)n + u(1,0,0)p - u(1,0,0)n >= -19
MCLin9(1,0,0):  -19 y(0,1,0) + u(1,0,0)p - u(1,0,0)n <= 0
MCLin10(1,0,0):  40 y(0,1,0) - v(1,0,0)p + v(1,0,0)n + u(1,0,0)p - u(1,0,0)n <= 40
MCLinV(0,1,1):  - x(0,1) + v(0,1,1)p - v(0,1,1)n + x(1,1) = -4
MCLinV(1,0,1):  x(0,1) + v(1,0,1)p - v(1,0,1)n - x(1,1) = -7
MCLin1(0,1,1):  u(0,1,1)p - u(0,1,1)n >= 0
MCLin2(0,1,1):  34 y(1,0,1) + u(0,1,1)p - u(0,1,1)n >= 0
MCLin3(0,1,1):  -25 y(1,0,1) - v(0,1,1)p + v(0,1,1)n + u(0,1,1)p - u(0,1,1)n >= -25
MCLin4(0,1,1):  -25 y(1,0,1) + u(0,1,1)p - u(0,1,1)n <= 0
MCLin5(0,1,1):  34 y(1,0,1) - v(0,1,1)p + v(0,1,1)n + u(0,1,1)p - u(0,1,1)n <= 34
MCLin6(1,0,1):  u(1,0,1)p - u(1,0,1)n >= 0
MCLin7(1,0,1):  36 y(0,1,1) + u(1,0,1)p - u(1,0,1)n >= 0
MCLin8(1,0,1):  -23 y(0,1,1) - v(1,0,1)p + v(1,0,1)n + u(1,0,1)p - u(1,0,1)n >= -23
MCLin9(1,0,1):  -23 y(0,1,1) + u(1,0,1)p - u(1,0,1)n <= 0
MCLin10(1,0,1):  36 y(0,1,1) - v(1,0,1)p + v(1,0,1)n + u(1,0,1)p - u(1,0,1)n <= 36
MCLinV(0,1,2):  - x(0,2) + v(0,1,2)p - v(0,1,2)n + x(1,2) = -7
MCLinV(1,0,2):  x(0,2) + v(1,0,2)p - v(1,0,2)n - x(1,2) = -7
MCLin1(0,1,2):  u(0,1,2)p - u(0,1,2)n >= 0
MCLin2(0,1,2):  37 y(1,0,2) + u(0,1,2)p - u(0,1,2)n >= 0
MCLin3(0,1,2):  -22 y(1,0,2) - v(0,1,2)p + v(0,1,2)n + u(0,1,2)p - u(0,1,2)n >= -22
MCLin4(0,1,2):  -22 y(1,0,2) + u(0,1,2)p - u(0,1,2)n <= 0
MCLin5(0,1,2):  37 y(1,0,2) - v(0,1,2)p + v(0,1,2)n + u(0,1,2)p - u(0,1,2)n <= 37
MCLin6(1,0,2):  u(1,0,2)p - u(1,0,2)n >= 0
MCLin7(1,0,2):  36 y(0,1,2) + u(1,0,2)p - u(1,0,2)n >= 0
MCLin8(1,0,2):  -23 y(0,1,2) - v(1,0,2)p + v(1,0,2)n + u(1,0,2)p - u(1,0,2)n >= -23
MCLin9(1,0,2):  -23 y(0,1,2) + u(1,0,2)p - u(1,0,2)n <= 0
MCLin10(1,0,2):  36 y(0,1,2) - v(1,0,2)p + v(1,0,2)n + u(1,0,2)p - u(1,0,2)n <= 36
MCLinV(0,2,0):  - x(0,0) + v(0,2,0)p - v(0,2,0)n + x(2,0) = -2
MCLinV(2,0,0):  x(0,0) + v(2,0,0)p - v(2,0,0)n - x(2,0) = -1
MCLin1(0,2,0):  u(0,2,0)p - u(0,2,0)n >= 0
MCLin2(0,2,0):  30 y(2,0,0) + u(0,2,0)p - u(0,2,0)n >= 0
MCLin3(0,2,0):  -28 y(2,0,0) - v(0,2,0)p + v(0,2,0)n + u(0,2,0)p - u(0,2,0)n >= -28
MCLin4(0,2,0):  -28 y(2,0,0) + u(0,2,0)p - u(0,2,0)n <= 0
MCLin5(0,2,0):  30 y(2,0,0) - v(0,2,0)p + v(0,2,0)n + u(0,2,0)p - u(0,2,0)n <= 30
MCLin6(2,0,0):  u(2,0,0)p - u(2,0,0)n >= 0
MCLin7(2,0,0):  31 y(0,2,0) + u(2,0,0)p - u(2,0,0)n >= 0
MCLin8(2,0,0):  -27 y(0,2,0) - v(2,0,0)p + v(2,0,0)n + u(2,0,0)p - u(2,0,0)n >= -27
MCLin9(2,0,0):  -27 y(0,2,0) + u(2,0,0)p - u(2,0,0)n <= 0
MCLin10(2,0,0):  31 y(0,2,0) - v(2,0,0)p + v(2,0,0)n + u(2,0,0)p - u(2,0,0)n <= 31
MCLinV(0,2,1):  - x(0,1) + v(0,2,1)p - v(0,2,1)n + x(2,1) = -7
MCLinV(2,0,1):  x(0,1) + v(2,0,1)p - v(2,0,1)n - x(2,1) = -7
MCLin1(0,2,1):  u(0,2,1)p - u(0,2,1)n >= 0
MCLin2(0,2,1):  36 y(2,0,1) + u(0,2,1)p - u(0,2,1)n >= 0
MCLin3(0,2,1):  -22 y(2,0,1) - v(0,2,1)p + v(0,2,1)n + u(0,2,1)p - u(0,2,1)n >= -22
MCLin4(0,2,1):  -22 y(2,0,1) + u(0,2,1)p - u(0,2,1)n <= 0
MCLin5(0,2,1):  36 y(2,0,1) - v(0,2,1)p + v(0,2,1)n + u(0,2,1)p - u(0,2,1)n <= 36
MCLin6(2,0,1):  u(2,0,1)p - u(2,0,1)n >= 0
MCLin7(2,0,1):  36 y(0,2,1) + u(2,0,1)p - u(2,0,1)n >= 0
MCLin8(2,0,1):  -22 y(0,2,1) - v(2,0,1)p + v(2,0,1)n + u(2,0,1)p - u(2,0,1)n >= -22
MCLin9(2,0,1):  -22 y(0,2,1) + u(2,0,1)p - u(2,0,1)n <= 0
MCLin10(2,0,1):  36 y(0,2,1) - v(2,0,1)p + v(2,0,1)n + u(2,0,1)p - u(2,0,1)n <= 36
MCLinV(0,2,2):  - x(0,2) + v(0,2,2)p - v(0,2,2)n + x(2,2) = -6
MCLinV(2,0,2):  x(0,2) + v(2,0,2)p - v(2,0,2)n - x(2,2) = -7
MCLin1(0,2,2):  u(0,2,2)p - u(0,2,2)n >= 0
MCLin2(0,2,2):  35 y(2,0,2) + u(0,2,2)p - u(0,2,2)n >= 0
MCLin3(0,2,2):  -23 y(2,0,2) - v(0,2,2)p + v(0,2,2)n + u(0,2,2)p - u(0,2,2)n >= -23
MCLin4(0,2,2):  -23 y(2,0,2) + u(0,2,2)p - u(0,2,2)n <= 0
MCLin5(0,2,2):  35 y(2,0,2) - v(0,2,2)p + v(0,2,2)n + u(0,2,2)p - u(0,2,2)n <= 35
MCLin6(2,0,2):  u(2,0,2)p - u(2,0,2)n >= 0
MCLin7(2,0,2):  36 y(0,2,2) + u(2,0,2)p - u(2,0,2)n >= 0
MCLin8(2,0,2):  -22 y(0,2,2) - v(2,0,2)p + v(2,0,2)n + u(2,0,2)p - u(2,0,2)n >= -22
MCLin9(2,0,2):  -22 y(0,2,2) + u(2,0,2)p - u(2,0,2)n <= 0
MCLin10(2,0,2):  36 y(0,2,2) - v(2,0,2)p + v(2,0,2)n + u(2,0,2)p - u(2,0,2)n <= 36
MCLinV(1,2,0):  - x(1,0) + v(1,2,0)p - v(1,2,0)n + x(2,0) = -2
MCLinV(2,1,0):  x(1,0) + v(2,1,0)p - v(2,1,0)n - x(2,0) = -3
MCLin1(1,2,0):  u(1,2,0)p - u(1,2,0)n >= 0
MCLin2(1,2,0):  40 y(2,1,0) + u(1,2,0)p - u(1,2,0)n >= 0
MCLin3(1,2,0):  -19 y(2,1,0) - v(1,2,0)p + v(1,2,0)n + u(1,2,0)p - u(1,2,0)n >= -19
MCLin4(1,2,0):  -19 y(2,1,0) + u(1,2,0)p - u(1,2,0)n <= 0
MCLin5(1,2,0):  40 y(2,1,0) - v(1,2,0)p + v(1,2,0)n + u(1,2,0)p - u(1,2,0)n <= 40
MCLin6(2,1,0):  u(2,1,0)p - u(2,1,0)n >= 0
MCLin7(2,1,0):  24 y(1,2,0) + u(2,1,0)p - u(2,1,0)n >= 0
MCLin8(2,1,0):  -35 y(1,2,0) - v(2,1,0)p + v(2,1,0)n + u(2,1,0)p - u(2,1,0)n >= -35
MCLin9(2,1,0):  -35 y(1,2,0) + u(2,1,0)p - u(2,1,0)n <= 0
MCLin10(2,1,0):  24 y(1,2,0) - v(2,1,0)p + v(2,1,0)n + u(2,1,0)p - u(2,1,0)n <= 24
MCLinV(1,2,1):  - x(1,1) + v(1,2,1)p - v(1,2,1)n + x(2,1) = -7
MCLinV(2,1,1):  x(1,1) + v(2,1,1)p - v(2,1,1)n - x(2,1) = -4
MCLin1(1,2,1):  u(1,2,1)p - u(1,2,1)n >= 0
MCLin2(1,2,1):  36 y(2,1,1) + u(1,2,1)p - u(1,2,1)n >= 0
MCLin3(1,2,1):  -23 y(2,1,1) - v(1,2,1)p + v(1,2,1)n + u(1,2,1)p - u(1,2,1)n >= -23
MCLin4(1,2,1):  -23 y(2,1,1) + u(1,2,1)p - u(1,2,1)n <= 0
MCLin5(1,2,1):  36 y(2,1,1) - v(1,2,1)p + v(1,2,1)n + u(1,2,1)p - u(1,2,1)n <= 36
MCLin6(2,1,1):  u(2,1,1)p - u(2,1,1)n >= 0
MCLin7(2,1,1):  34 y(1,2,1) + u(2,1,1)p - u(2,1,1)n >= 0
MCLin8(2,1,1):  -25 y(1,2,1) - v(2,1,1)p + v(2,1,1)n + u(2,1,1)p - u(2,1,1)n >= -25
MCLin9(2,1,1):  -25 y(1,2,1) + u(2,1,1)p - u(2,1,1)n <= 0
MCLin10(2,1,1):  34 y(1,2,1) - v(2,1,1)p + v(2,1,1)n + u(2,1,1)p - u(2,1,1)n <= 34
MCLinV(1,2,2):  - x(1,2) + v(1,2,2)p - v(1,2,2)n + x(2,2) = -6
MCLinV(2,1,2):  x(1,2) + v(2,1,2)p - v(2,1,2)n - x(2,2) = -7
MCLin1(1,2,2):  u(1,2,2)p - u(1,2,2)n >= 0
MCLin2(1,2,2):  35 y(2,1,2) + u(1,2,2)p - u(1,2,2)n >= 0
MCLin3(1,2,2):  -24 y(2,1,2) - v(1,2,2)p + v(1,2,2)n + u(1,2,2)p - u(1,2,2)n >= -24
MCLin4(1,2,2):  -24 y(2,1,2) + u(1,2,2)p - u(1,2,2)n <= 0
MCLin5(1,2,2):  35 y(2,1,2) - v(1,2,2)p + v(1,2,2)n + u(1,2,2)p - u(1,2,2)n <= 35
MCLin6(2,1,2):  u(2,1,2)p - u(2,1,2)n >= 0
MCLin7(2,1,2):  37 y(1,2,2) + u(2,1,2)p - u(2,1,2)n >= 0
MCLin8(2,1,2):  -22 y(1,2,2) - v(2,1,2)p + v(2,1,2)n + u(2,1,2)p - u(2,1,2)n >= -22
MCLin9(2,1,2):  -22 y(1,2,2) + u(2,1,2)p - u(2,1,2)n <= 0
MCLin10(2,1,2):  37 y(1,2,2) - v(2,1,2)p + v(2,1,2)n + u(2,1,2)p - u(2,1,2)n <= 37
makespan(0):  C - x(0,0) >= 1
makespan(1):  C - x(1,2) >= 7
makespan(2):  C - x(2,0) >= 2
cut_clique_1(0,0):  0.04762 x(0,0) + 0.02455 x(2,0) >= 1
cut_clique_1(1,0):  0.04619 x(0,0) + 0.02455 x(2,0) >= 1
cut_clique_1(2,0):  0.04619 x(0,0) + 0.02431 x(2,0) >= 1
cut_clique_1(3,0):  0.04573 x(0,0) + 0.02431 x(2,0) >= 1
cut_clique_1(4,0):  0.04573 x(0,0) + 0.02601 x(2,0) >= 1
cut_clique_1(5,0):  0.04664 x(0,0) + 0.02601 x(2,0) >= 1
cut_clique_1(6,0):  0.01786 x(0,0) + 0.05635 x(2,0) >= 1
cut_clique_1(7,0):  0.04295 x(0,0) + 0.02790 x(2,0) >= 1
cut_clique_1(8,0):  0.04338 x(0,0) + 0.02790 x(2,0) >= 1
cut_clique_1(9,0):  0.04338 x(0,0) + 0.02707 x(2,0) >= 1
cut_clique_1(10,0):  0.04338 x(0,0) + 0.02734 x(2,0) >= 1
cut_clique_1(11,0):  0.04338 x(0,0) + 0.02706 x(2,0) >= 1
cut_clique_1(12,0):  0.04338 x(0,0) + 0.02842 x(2,0) >= 1
cut_clique_1(13,0):  0.01841 x(0,0) + 0.05635 x(2,0) >= 1
cut_clique_1(14,0):  0.04245 x(0,0) + 0.02842 x(2,0) >= 1
cut_clique_1(15,0):  0.04372 x(0,0) + 0.02842 x(2,0) >= 1
cut_clique_1(16,0):  0.03979 x(0,0) + 0.03154 x(2,0) >= 1
cut_clique_1(17,0):  0.03745 x(0,0) + 0.03533 x(2,0) >= 1
cut_clique_1(18,0):  0.03594 x(0,0) + 0.03745 x(2,0) >= 1
cut_clique_1(19,0):  0.03564 x(0,0) + 0.03781 x(2,0) >= 1
cut_clique_1(20,0):  0.03207 x(0,0) + 0.04008 x(2,0) >= 1
cut_clique_1(21,0):  0.01822 x(0,0) + 0.05635 x(2,0) >= 1
cut_clique_1(22,0):  0.03489 x(0,0) + 0.03808 x(2,0) >= 1
cut_clique_1(23,0):  0.03028 x(0,0) + 0.04270 x(2,0) >= 1
cut_clique_1(24,0):  0.02967 x(0,0) + 0.04270 x(2,0) >= 1
cut_clique_1(25,0):  0.02494 x(0,0) + 0.04903 x(2,0) >= 1
cut_clique_1(26,0):  0.02519 x(0,0) + 0.04903 x(2,0) >= 1
cut_clique_1(27,0):  0.01543 x(0,0) + 0.05918 x(2,0) >= 1
cut_clique_1(28,0):  0.02569 x(0,0) + 0.04805 x(2,0) >= 1
cut_clique_1(29,0):  0.02518 x(0,0) + 0.04805 x(2,0) >= 1
cut_clique_1(30,0):  0.02096 x(0,0) + 0.05321 x(2,0) >= 1
cut_clique_1(31,0):  0.03102 x(0,0) + 0.04203 x(2,0) >= 1
cut_clique_1(32,0):  0.03164 x(0,0) + 0.04203 x(2,0) >= 1
cut_clique_1(33,0):  0.03164 x(0,0) + 0.04161 x(2,0) >= 1
cut_clique_1(34,0):  0.03322 x(0,0) + 0.03884 x(2,0) >= 1
cut_clique_1(35,0):  0.01458 x(0,0) + 0.06010 x(2,0) >= 1
cut_clique_1(36,0):  0.02998 x(0,0) + 0.04238 x(2,0) >= 1
cut_clique_1(37,0):  0.02770 x(0,0) + 0.04535 x(2,0) >= 1
cut_clique_1(38,0):  0.02757 x(0,0) + 0.04535 x(2,0) >= 1
cut_clique_1(39,0):  0.02075 x(0,0) + 0.05375 x(2,0) >= 1
cut_clique_1(40,0):  0.02729 x(0,0) + 0.04671 x(2,0) >= 1
cut_clique_1(41,0):  0.02729 x(0,0) + 0.04624 x(2,0) >= 1
cut_clique_1(42,0):  0.02702 x(0,0) + 0.04624 x(2,0) >= 1
cut_clique_1(43,0):  0.02675 x(0,0) + 0.04624 x(2,0) >= 1
cut_clique_1(44,0):  0.02075 x(0,0) + 0.05321 x(2,0) >= 1
cut_clique_1(45,0):  0.01963 x(0,0) + 0.05454 x(2,0) >= 1
cut_clique_1(46,0):  0.02018 x(0,0) + 0.05434 x(2,0) >= 1
cut_clique_1(47,0):  0.01989 x(0,0) + 0.05434 x(2,0) >= 1
cut_clique_1(48,0):  0.01969 x(0,0) + 0.05434 x(2,0) >= 1
cut_clique_1(49,0):  0.01318 x(0,0) + 0.06185 x(2,0) >= 1
cut_clique_1(0,1):  0.98354 x(0,1) + 0.97981 x(1,1) + 0.97713 x(2,1) >= 1
cut_clique_1(1,1):  0.95557 x(0,1) + 0.98238 x(1,1) + 0.99508 x(2,1) >= 1
cut_clique_1(2,1):  0.95919 x(0,1) + 0.98008 x(1,1) + 0.99592 x(2,1) >= 1
cut_clique_1(3,1):  0.98643 x(0,1) + 0.99387 x(1,1) + 0.96617 x(2,1) >= 1
cut_clique_1(4,1):  0.97459 x(0,1) + 0.97554 x(1,1) + 0.96710 x(2,1) >= 1
cut_clique_1(5,1):  0.96285 x(0,1) + 0.97691 x(1,1) + 0.98026 x(2,1) >= 1
cut_clique_1(6,1):  0.98514 x(0,1) + 0.98822 x(1,1) + 0.95339 x(2,1) >= 1
cut_clique_1(7,1):  0.99564 x(0,1) + 0.98455 x(1,1) + 0.94061 x(2,1) >= 1
cut_clique_1(8,1):  0.99279 x(0,1) + 0.99397 x(1,1) + 0.99605 x(2,1) >= 1
cut_clique_1(9,1):  0.97660 x(0,1) + 0.94646 x(1,1) + 0.99836 x(2,1) >= 1
cut_clique_1(10,1):  0.96285 x(0,1) + 0.98391 x(1,1) + 0.97172 x(2,1) >= 1
cut_clique_1(11,1):  0.99233 x(0,1) + 0.92966 x(1,1) + 0.99428 x(2,1) >= 1
cut_clique_1(12,1):  0.97459 x(0,1) + 0.97554 x(1,1) + 0.97786 x(2,1) >= 1
cut_clique_1(13,1):  0.97660 x(0,1) + 0.98006 x(1,1) + 0.99836 x(2,1) >= 1
cut_clique_1(14,1):  0.98295 x(0,1) + 0.99266 x(1,1) + 0.98201 x(2,1) >= 1
cut_clique_1(15,1):  0.97458 x(0,1) + 0.97838 x(1,1) + 0.99508 x(2,1) >= 1
cut_clique_1(16,1):  0.94365 x(0,1) + 0.98903 x(1,1) + 0.99150 x(2,1) >= 1
cut_clique_1(17,1):  0.98354 x(0,1) + 0.97981 x(1,1) + 0.96745 x(2,1) >= 1
cut_clique_1(18,1):  0.98513 x(0,1) + 0.97536 x(1,1) + 0.98167 x(2,1) >= 1
cut_clique_1(19,1):  0.93560 x(0,1) + 0.98816 x(1,1) + 0.99508 x(2,1) >= 1
cut_clique_1(20,1):  0.94846 x(0,1) + 0.99844 x(1,1) + 0.98410 x(2,1) >= 1
cut_clique_1(21,1):  0.93996 x(0,1) + 0.98192 x(1,1) + 0.99793 x(2,1) >= 1
cut_clique_1(22,1):  0.98295 x(0,1) + 0.98283 x(1,1) + 0.98201 x(2,1) >= 1
cut_clique_1(23,1):  0.97199 x(0,1) + 0.97207 x(1,1) + 0.99642 x(2,1) >= 1
cut_clique_1(24,1):  0.98295 x(0,1) + 0.98283 x(1,1) + 0.97228 x(2,1) >= 1
cut_clique_1(25,1):  0.99947 x(0,1) + 0.96327 x(1,1) + 0.96937 x(2,1) >= 1
cut_clique_1(26,1):  0.98643 x(0,1) + 0.98403 x(1,1) + 0.99605 x(2,1) >= 1
cut_clique_1(27,1):  0.97903 x(0,1) + 0.97384 x(1,1) + 0.97024 x(2,1) >= 1
cut_clique_1(28,1):  0.97355 x(0,1) + 0.97207 x(1,1) + 0.99642 x(2,1) >= 1
cut_clique_1(29,1):  0.99763 x(0,1) + 0.96595 x(1,1) + 0.96068 x(2,1) >= 1
cut_clique_1(30,1):  0.99871 x(0,1) + 0.95891 x(1,1) + 0.98270 x(2,1) >= 1
cut_clique_1(31,1):  0.98643 x(0,1) + 0.99387 x(1,1) + 0.99605 x(2,1) >= 1
cut_clique_1(32,1):  0.96892 x(0,1) + 0.97655 x(1,1) + 0.98137 x(2,1) >= 1
cut_clique_1(33,1):  0.99383 x(0,1) + 0.93627 x(1,1) + 0.98654 x(2,1) >= 1
cut_clique_1(34,1):  0.96142 x(0,1) + 0.97554 x(1,1) + 0.99782 x(2,1) >= 1
cut_clique_1(35,1):  0.99279 x(0,1) + 0.98403 x(1,1) + 0.99605 x(2,1) >= 1
cut_clique_1(36,1):  0.98647 x(0,1) + 0.94646 x(1,1) + 0.99836 x(2,1) >= 1
cut_clique_1(37,1):  0.99871 x(0,1) + 0.96860 x(1,1) + 0.97297 x(2,1) >= 1
cut_clique_1(38,1):  0.98442 x(0,1) + 0.97838 x(1,1) + 0.99508 x(2,1) >= 1
cut_clique_1(39,1):  0.97324 x(0,1) + 0.99129 x(1,1) + 0.95618 x(2,1) >= 1
cut_clique_1(40,1):  0.96587 x(0,1) + 0.97346 x(1,1) + 0.98143 x(2,1) >= 1
cut_clique_1(41,1):  0.99993 x(0,1) + 0.97356 x(1,1) + 0.99474 x(2,1) >= 1
cut_clique_1(42,1):  0.94960 x(0,1) + 0.98008 x(1,1) + 0.99592 x(2,1) >= 1
cut_clique_1(43,1):  0.96285 x(0,1) + 0.98391 x(1,1) + 0.99116 x(2,1) >= 1
cut_clique_1(44,1):  0.97419 x(0,1) + 0.97232 x(1,1) + 0.96899 x(2,1) >= 1
cut_clique_1(45,1):  0.97494 x(0,1) + 0.94643 x(1,1) + 0.99717 x(2,1) >= 1
cut_clique_1(46,1):  0.98135 x(0,1) + 0.99951 x(1,1) + 0.98200 x(2,1) >= 1
cut_clique_1(47,1):  0.99871 x(0,1) + 0.95891 x(1,1) + 0.97297 x(2,1) >= 1
cut_clique_1(48,1):  0.98135 x(0,1) + 0.95192 x(1,1) + 0.98200 x(2,1) >= 1
cut_clique_1(49,1):  0.98637 x(0,1) + 0.98808 x(1,1) + 0.94238 x(2,1) >= 1
cut_clique_1(0,2):  0.05851 x(0,2) + 0.04303 x(2,2) >= 1
cut_clique_1(1,2):  0.06202 x(0,2) + 0.04303 x(2,2) >= 1
cut_clique_1(2,2):  0.06202 x(0,2) + 0.04604 x(2,2) >= 1
cut_clique_1(3,2):  0.06643 x(0,2) + 0.04404 x(2,2) >= 1
cut_clique_1(4,2):  0.06643 x(0,2) + 0.04155 x(2,2) >= 1
cut_clique_1(5,2):  0.06919 x(0,2) + 0.04155 x(2,2) >= 1
cut_clique_1(6,2):  0.06202 x(0,2) + 0.04328 x(2,2) >= 1
cut_clique_1(7,2):  0.06017 x(0,2) + 0.04328 x(2,2) >= 1
cut_clique_1(8,2):  0.07000 x(0,2) + 0.03801 x(2,2) >= 1
cut_clique_1(9,2):  0.07280 x(0,2) + 0.03801 x(2,2) >= 1
cut_clique_1(10,2):  0.07274 x(0,2) + 0.03575 x(2,2) >= 1
cut_clique_1(11,2):  0.06948 x(0,2) + 0.04204 x(2,2) >= 1
cut_clique_1(12,2):  0.06879 x(0,2) + 0.04204 x(2,2) >= 1
cut_clique_1(13,2):  0.07522 x(0,2) + 0.03390 x(2,2) >= 1
cut_clique_1(14,2):  0.06879 x(0,2) + 0.04241 x(2,2) >= 1
cut_clique_1(15,2):  0.06672 x(0,2) + 0.04241 x(2,2) >= 1
cut_clique_1(16,2):  0.06005 x(0,2) + 0.04241 x(2,2) >= 1
cut_clique_1(17,2):  0.06486 x(0,2) + 0.04241 x(2,2) >= 1
cut_clique_1(18,2):  0.06745 x(0,2) + 0.04241 x(2,2) >= 1
cut_clique_1(19,2):  0.06745 x(0,2) + 0.03902 x(2,2) >= 1
cut_clique_1(20,2):  0.07274 x(0,2) + 0.03724 x(2,2) >= 1
cut_clique_1(21,2):  0.07654 x(0,2) + 0.03324 x(2,2) >= 1
cut_clique_1(22,2):  0.06643 x(0,2) + 0.04360 x(2,2) >= 1
cut_clique_1(23,2):  0.06017 x(0,2) + 0.04155 x(2,2) >= 1
cut_clique_1(24,2):  0.06140 x(0,2) + 0.04328 x(2,2) >= 1
cut_clique_1(25,2):  0.07654 x(0,2) + 0.03462 x(2,2) >= 1
cut_clique_1(26,2):  0.07522 x(0,2) + 0.03531 x(2,2) >= 1
cut_clique_1(27,2):  0.07274 x(0,2) + 0.03539 x(2,2) >= 1
cut_clique_1(28,2):  0.06286 x(0,2) + 0.04626 x(2,2) >= 1
cut_clique_1(29,2):  0.07676 x(0,2) + 0.03462 x(2,2) >= 1
cut_clique_1(30,2):  0.07161 x(0,2) + 0.03873 x(2,2) >= 1
cut_clique_1(31,2):  0.05343 x(0,2) + 0.05446 x(2,2) >= 1
cut_clique_1(32,2):  0.07731 x(0,2) + 0.03329 x(2,2) >= 1
cut_clique_1(33,2):  0.05771 x(0,2) + 0.05337 x(2,2) >= 1
cut_clique_1(34,2):  0.05771 x(0,2) + 0.05070 x(2,2) >= 1
cut_clique_1(35,2):  0.05771 x(0,2) + 0.04867 x(2,2) >= 1
cut_clique_1(36,2):  0.05771 x(0,2) + 0.04721 x(2,2) >= 1
cut_clique_1(37,2):  0.05251 x(0,2) + 0.04721 x(2,2) >= 1
cut_clique_1(38,2):  0.05251 x(0,2) + 0.05287 x(2,2) >= 1
cut_clique_1(39,2):  0.05199 x(0,2) + 0.05287 x(2,2) >= 1
cut_clique_1(40,2):  0.05095 x(0,2) + 0.05287 x(2,2) >= 1
cut_clique_1(41,2):  0.05095 x(0,2) + 0.05552 x(2,2) >= 1
cut_clique_1(42,2):  0.07380 x(0,2) + 0.03603 x(2,2) >= 1
cut_clique_1(43,2):  0.05373 x(0,2) + 0.05552 x(2,2) >= 1
cut_clique_1(44,2):  0.07280 x(0,2) + 0.03573 x(2,2) >= 1
cut_clique_1(45,2):  0.05910 x(0,2) + 0.04775 x(2,2) >= 1
cut_clique_1(46,2):  0.05910 x(0,2) + 0.04966 x(2,2) >= 1
cut_clique_1(47,2):  0.07748 x(0,2) + 0.03390 x(2,2) >= 1
cut_clique_1(48,2):  0.07819 x(0,2) + 0.03301 x(2,2) >= 1
cut_clique_1(49,2):  0.05851 x(0,2) + 0.04729 x(2,2) >= 1
cut_clique_2(0,1):  0.55954 x(0,1) + 0.14288 x(2,1) >= 1
cut_clique_2(1,1):  0.74293 x(0,1) + 0.14298 x(2,1) >= 1
cut_clique_2(2,1):  0.40365 x(0,1) + 0.14288 x(2,1) >= 1
cut_clique_2(3,1):  0.44479 x(0,1) + 0.14298 x(2,1) >= 1
cut_clique_2(4,1):  0.38140 x(0,1) + 0.14298 x(2,1) >= 1
cut_clique_2(5,1):  0.45658 x(0,1) + 0.14288 x(2,1) >= 1
cut_clique_2(6,1):  0.53408 x(0,1) + 0.14298 x(2,1) >= 1
cut_clique_2(7,1):  0.29659 x(0,1) + 0.14298 x(2,1) >= 1
cut_clique_2(8,1):  0.59747 x(0,1) + 0.14288 x(2,1) >= 1
cut_clique_2(9,1):  0.31989 x(0,1) + 0.14298 x(2,1) >= 1
cut_clique_2(10,1):  0.28472 x(0,1) + 0.14298 x(2,1) >= 1
cut_clique_2(11,1):  0.42287 x(0,1) + 0.14288 x(2,1) >= 1
cut_clique_2(12,1):  0.46653 x(0,1) + 0.14298 x(2,1) >= 1
cut_clique_2(13,1):  0.69263 x(0,1) + 0.14288 x(2,1) >= 1
cut_clique_2(14,1):  0.59817 x(0,1) + 0.14298 x(2,1) >= 1
cut_clique_2(15,1):  0.58837 x(0,1) + 0.14288 x(2,1) >= 1
cut_clique_2(16,1):  0.69474 x(0,1) + 0.14288 x(2,1) >= 1
cut_clique_2(17,1):  0.56224 x(0,1) + 0.14288 x(2,1) >= 1
cut_clique_2(18,1):  0.73908 x(0,1) + 0.14288 x(2,1) >= 1
cut_clique_2(19,1):  0.64602 x(0,1) + 0.14298 x(2,1) >= 1
cut_clique_2(20,1):  0.76263 x(0,1) + 0.14288 x(2,1) >= 1
cut_clique_2(21,1):  0.45247 x(0,1) + 0.14288 x(2,1) >= 1
cut_clique_2(22,1):  0.73975 x(0,1) + 0.14288 x(2,1) >= 1
cut_clique_2(23,1):  0.60708 x(0,1) + 0.14298 x(2,1) >= 1
cut_clique_2(24,1):  0.41569 x(0,1) + 0.14298 x(2,1) >= 1
cut_clique_2(25,1):  0.43594 x(0,1) + 0.14288 x(2,1) >= 1
cut_clique_2(26,1):  0.72055 x(0,1) + 0.14288 x(2,1) >= 1
cut_clique_2(27,1):  0.29896 x(0,1) + 0.14298 x(2,1) >= 1
cut_clique_2(28,1):  0.37831 x(0,1) + 0.14298 x(2,1) >= 1
cut_clique_2(29,1):  0.69835 x(0,1) + 0.14298 x(2,1) >= 1
cut_clique_2(30,1):  0.33669 x(0,1) + 0.14298 x(2,1) >= 1
cut_clique_2(31,1):  0.49319 x(0,1) + 0.14288 x(2,1) >= 1
cut_clique_2(32,1):  0.49452 x(0,1) + 0.14298 x(2,1) >= 1
cut_clique_2(33,1):  0.71930 x(0,1) + 0.14298 x(2,1) >= 1
cut_clique_2(34,1):  0.29629 x(0,1) + 0.14298 x(2,1) >= 1
cut_clique_2(35,1):  0.65987 x(0,1) + 0.14298 x(2,1) >= 1
cut_clique_2(36,1):  0.58899 x(0,1) + 0.14288 x(2,1) >= 1
cut_clique_2(37,1):  0.63544 x(0,1) + 0.14288 x(2,1) >= 1
cut_clique_2(38,1):  0.41572 x(0,1) + 0.14298 x(2,1) >= 1
cut_clique_2(39,1):  0.70614 x(0,1) + 0.14288 x(2,1) >= 1
cut_clique_2(40,1):  0.47148 x(0,1) + 0.14298 x(2,1) >= 1
cut_clique_2(41,1):  0.69956 x(0,1) + 0.14288 x(2,1) >= 1
cut_clique_2(42,1):  0.71755 x(0,1) + 0.14288 x(2,1) >= 1
cut_clique_2(43,1):  0.40773 x(0,1) + 0.14288 x(2,1) >= 1
cut_clique_2(44,1):  0.55565 x(0,1) + 0.14288 x(2,1) >= 1
cut_clique_2(45,1):  0.83483 x(0,1) + 0.14288 x(2,1) >= 1
cut_clique_2(46,1):  0.53716 x(0,1) + 0.14288 x(2,1) >= 1
cut_clique_2(47,1):  0.43376 x(0,1) + 0.14288 x(2,1) >= 1
cut_clique_2(48,1):  0.32592 x(0,1) + 0.14298 x(2,1) >= 1
cut_clique_2(49,1):  0.36147 x(0,1) + 0.14298 x(2,1) >= 1
cut_clique_2(0,2):  0.00570 x(0,2) + 0.05181 x(1,2) + 0.05257 x(2,2) >= 1
cut_clique_2(1,2):  0.00570 x(0,2) + 0.05181 x(1,2) + 0.04521 x(2,2) >= 1
cut_clique_2(2,2):  0.00496 x(0,2) + 0.05181 x(1,2) + 0.04521 x(2,2) >= 1
cut_clique_2(3,2):  0.00496 x(0,2) + 0.05130 x(1,2) + 0.04521 x(2,2) >= 1
cut_clique_2(4,2):  0.00426 x(0,2) + 0.05130 x(1,2) + 0.04521 x(2,2) >= 1
cut_clique_2(5,2):  0.00426 x(0,2) + 0.05130 x(1,2) + 0.04295 x(2,2) >= 1
cut_clique_2(6,2):  0.00384 x(0,2) + 0.05130 x(1,2) + 0.04295 x(2,2) >= 1
cut_clique_2(7,2):  0.00368 x(0,2) + 0.05130 x(1,2) + 0.04295 x(2,2) >= 1
cut_clique_2(8,2):  0.00368 x(0,2) + 0.04924 x(1,2) + 0.04295 x(2,2) >= 1
cut_clique_2(9,2):  0.00368 x(0,2) + 0.04826 x(1,2) + 0.04295 x(2,2) >= 1
cut_clique_2(10,2):  0.00365 x(0,2) + 0.04826 x(1,2) + 0.04295 x(2,2) >= 1
cut_clique_2(11,2):  0.05223 x(0,2) + 0.04656 x(2,2) >= 1
cut_clique_2(12,2):  0.05288 x(0,2) + 0.04527 x(2,2) >= 1
cut_clique_2(13,2):  0.10772 x(1,2) + 0.01800 x(2,2) >= 1
cut_clique_2(14,2):  0.10772 x(1,2) + 0.01800 x(2,2) >= 1
cut_clique_2(15,2):  0.05397 x(0,2) + 0.04446 x(2,2) >= 1
cut_clique_2(16,2):  0.10678 x(1,2) + 0.01840 x(2,2) >= 1
cut_clique_2(17,2):  0.05223 x(0,2) + 0.04610 x(2,2) >= 1
cut_clique_2(18,2):  0.06175 x(1,2) + 0.04249 x(2,2) >= 1
cut_clique_2(19,2):  0.10678 x(1,2) + 0.01917 x(2,2) >= 1
cut_clique_2(20,2):  0.10678 x(1,2) + 0.01878 x(2,2) >= 1
cut_clique_2(21,2):  0.09976 x(1,2) + 0.02373 x(2,2) >= 1
cut_clique_2(22,2):  0.09876 x(1,2) + 0.02373 x(2,2) >= 1
cut_clique_2(23,2):  0.09876 x(1,2) + 0.02349 x(2,2) >= 1
cut_clique_2(24,2):  0.08988 x(1,2) + 0.02701 x(2,2) >= 1
cut_clique_2(25,2):  0.09347 x(1,2) + 0.02701 x(2,2) >= 1
cut_clique_2(26,2):  0.10001 x(1,2) + 0.02296 x(2,2) >= 1
cut_clique_2(27,2):  0.09721 x(1,2) + 0.02641 x(2,2) >= 1
cut_clique_2(28,2):  0.09721 x(1,2) + 0.02588 x(2,2) >= 1
cut_clique_2(29,2):  0.09721 x(1,2) + 0.02510 x(2,2) >= 1
cut_clique_2(30,2):  0.09721 x(1,2) + 0.02410 x(2,2) >= 1
cut_clique_2(31,2):  0.09332 x(1,2) + 0.02557 x(2,2) >= 1
cut_clique_2(32,2):  0.09855 x(1,2) + 0.02526 x(2,2) >= 1
cut_clique_2(33,2):  0.09757 x(1,2) + 0.02526 x(2,2) >= 1
cut_clique_2(34,2):  0.09757 x(1,2) + 0.02501 x(2,2) >= 1
cut_clique_2(35,2):  0.09561 x(1,2) + 0.02501 x(2,2) >= 1
cut_clique_2(36,2):  0.09561 x(1,2) + 0.02401 x(2,2) >= 1
cut_clique_2(37,2):  0.04595 x(1,2) + 0.06366 x(2,2) >= 1
cut_clique_2(38,2):  0.04411 x(1,2) + 0.06366 x(2,2) >= 1
cut_clique_2(39,2):  0.04414 x(1,2) + 0.06545 x(2,2) >= 1
cut_clique_2(40,2):  0.04394 x(1,2) + 0.06623 x(2,2) >= 1
cut_clique_2(41,2):  0.04394 x(1,2) + 0.06490 x(2,2) >= 1
cut_clique_2(42,2):  0.04394 x(1,2) + 0.06231 x(2,2) >= 1
cut_clique_2(43,2):  0.06175 x(1,2) + 0.04673 x(2,2) >= 1
cut_clique_2(44,2):  0.05222 x(1,2) + 0.05630 x(2,2) >= 1
cut_clique_2(45,2):  0.05222 x(1,2) + 0.05405 x(2,2) >= 1
cut_clique_2(46,2):  0.05222 x(1,2) + 0.04919 x(2,2) >= 1
cut_clique_2(47,2):  0.05692 x(1,2) + 0.04574 x(2,2) >= 1
cut_clique_2(48,2):  0.05464 x(1,2) + 0.04574 x(2,2) >= 1
cut_clique_2(49,2):  0.06175 x(1,2) + 0.04574 x(2,2) >= 1
cut_clique_3(0,1):  0.07745 x(0,1) + 0.03397 x(1,1) + 0.08366 x(2,1) >= 1
cut_clique_3(1,1):  0.07357 x(0,1) + 0.03474 x(1,1) + 0.07763 x(2,1) >= 1
cut_clique_3(2,1):  0.07382 x(0,1) + 0.03665 x(1,1) + 0.07295 x(2,1) >= 1
cut_clique_3(3,1):  0.07357 x(0,1) + 0.03474 x(1,1) + 0.08087 x(2,1) >= 1
cut_clique_3(4,1):  0.07184 x(0,1) + 0.03570 x(1,1) + 0.07732 x(2,1) >= 1
cut_clique_3(5,1):  0.07411 x(0,1) + 0.03739 x(1,1) + 0.07933 x(2,1) >= 1
cut_clique_3(6,1):  0.06791 x(0,1) + 0.04116 x(1,1) + 0.06991 x(2,1) >= 1
cut_clique_3(7,1):  0.06554 x(0,1) + 0.04166 x(1,1) + 0.07654 x(2,1) >= 1
cut_clique_3(8,1):  0.07230 x(0,1) + 0.03949 x(1,1) + 0.07038 x(2,1) >= 1
cut_clique_3(9,1):  0.07357 x(0,1) + 0.03474 x(1,1) + 0.08424 x(2,1) >= 1
cut_clique_3(10,1):  0.07382 x(0,1) + 0.03665 x(1,1) + 0.07599 x(2,1) >= 1
cut_clique_3(11,1):  0.07489 x(0,1) + 0.03804 x(1,1) + 0.07226 x(2,1) >= 1
cut_clique_3(12,1):  0.06791 x(0,1) + 0.04007 x(1,1) + 0.07944 x(2,1) >= 1
cut_clique_3(13,1):  0.07489 x(0,1) + 0.03804 x(1,1) + 0.06817 x(2,1) >= 1
cut_clique_3(14,1):  0.07184 x(0,1) + 0.03570 x(1,1) + 0.08118 x(2,1) >= 1
cut_clique_3(15,1):  0.06791 x(0,1) + 0.04116 x(1,1) + 0.07944 x(2,1) >= 1
cut_clique_3(16,1):  0.07230 x(0,1) + 0.03949 x(1,1) + 0.07256 x(2,1) >= 1
cut_clique_3(17,1):  0.06587 x(0,1) + 0.04116 x(1,1) + 0.06991 x(2,1) >= 1
cut_clique_3(18,1):  0.07162 x(0,1) + 0.03949 x(1,1) + 0.06784 x(2,1) >= 1
cut_clique_3(19,1):  0.07673 x(0,1) + 0.03397 x(1,1) + 0.08290 x(2,1) >= 1
cut_clique_3(20,1):  0.07184 x(0,1) + 0.03570 x(1,1) + 0.07225 x(2,1) >= 1
cut_clique_3(21,1):  0.06530 x(0,1) + 0.04398 x(1,1) + 0.07081 x(2,1) >= 1
cut_clique_3(22,1):  0.06663 x(0,1) + 0.03949 x(1,1) + 0.06756 x(2,1) >= 1
cut_clique_3(23,1):  0.06530 x(0,1) + 0.04118 x(1,1) + 0.07944 x(2,1) >= 1
cut_clique_3(24,1):  0.06530 x(0,1) + 0.04262 x(1,1) + 0.07944 x(2,1) >= 1
cut_clique_3(25,1):  0.06530 x(0,1) + 0.04160 x(1,1) + 0.07944 x(2,1) >= 1
cut_clique_3(26,1):  0.07162 x(0,1) + 0.03949 x(1,1) + 0.07295 x(2,1) >= 1
cut_clique_3(27,1):  0.06587 x(0,1) + 0.04116 x(1,1) + 0.06921 x(2,1) >= 1
cut_clique_3(28,1):  0.06530 x(0,1) + 0.04090 x(1,1) + 0.07081 x(2,1) >= 1
cut_clique_3(29,1):  0.07184 x(0,1) + 0.03880 x(1,1) + 0.07226 x(2,1) >= 1
cut_clique_3(30,1):  0.07566 x(0,1) + 0.03613 x(1,1) + 0.07065 x(2,1) >= 1
cut_clique_3(31,1):  0.07920 x(0,1) + 0.03372 x(1,1) + 0.07636 x(2,1) >= 1
cut_clique_3(32,1):  0.07411 x(0,1) + 0.03665 x(1,1) + 0.08171 x(2,1) >= 1
cut_clique_3(33,1):  0.07407 x(0,1) + 0.03804 x(1,1) + 0.07226 x(2,1) >= 1
cut_clique_3(34,1):  0.07162 x(0,1) + 0.04029 x(1,1) + 0.07295 x(2,1) >= 1
cut_clique_3(35,1):  0.06791 x(0,1) + 0.04262 x(1,1) + 0.07944 x(2,1) >= 1
cut_clique_3(36,1):  0.07560 x(0,1) + 0.03665 x(1,1) + 0.07599 x(2,1) >= 1
cut_clique_3(37,1):  0.06663 x(0,1) + 0.03949 x(1,1) + 0.06689 x(2,1) >= 1
cut_clique_3(38,1):  0.07178 x(0,1) + 0.03934 x(1,1) + 0.06704 x(2,1) >= 1
cut_clique_3(39,1):  0.06663 x(0,1) + 0.03949 x(1,1) + 0.07038 x(2,1) >= 1
cut_clique_3(40,1):  0.06663 x(0,1) + 0.04147 x(1,1) + 0.06689 x(2,1) >= 1
cut_clique_3(41,1):  0.07407 x(0,1) + 0.03880 x(1,1) + 0.07226 x(2,1) >= 1
cut_clique_3(42,1):  0.07234 x(0,1) + 0.04029 x(1,1) + 0.07295 x(2,1) >= 1
cut_clique_3(43,1):  0.07357 x(0,1) + 0.03474 x(1,1) + 0.08596 x(2,1) >= 1
cut_clique_3(44,1):  0.07184 x(0,1) + 0.03570 x(1,1) + 0.07226 x(2,1) >= 1
cut_clique_3(45,1):  0.07357 x(0,1) + 0.03474 x(1,1) + 0.09343 x(2,1) >= 1
cut_clique_3(46,1):  0.07489 x(0,1) + 0.03774 x(1,1) + 0.06817 x(2,1) >= 1
cut_clique_3(47,1):  0.07382 x(0,1) + 0.03591 x(1,1) + 0.07295 x(2,1) >= 1
cut_clique_3(48,1):  0.06941 x(0,1) + 0.03949 x(1,1) + 0.07038 x(2,1) >= 1
cut_clique_3(49,1):  0.06663 x(0,1) + 0.03870 x(1,1) + 0.06689 x(2,1) >= 1
cut_clique_3(0,2):  0.04656 x(0,2) + 0.02066 x(1,2) + 0.02152 x(2,2) >= 1
cut_clique_3(1,2):  0.04049 x(0,2) + 0.02337 x(1,2) + 0.02196 x(2,2) >= 1
cut_clique_3(2,2):  0.04962 x(0,2) + 0.02621 x(1,2) + 0.01366 x(2,2) >= 1
cut_clique_3(3,2):  0.04749 x(0,2) + 0.03083 x(1,2) + 0.01126 x(2,2) >= 1
cut_clique_3(4,2):  0.04656 x(0,2) + 0.02337 x(1,2) + 0.02152 x(2,2) >= 1
cut_clique_3(5,2):  0.05290 x(0,2) + 0.02567 x(1,2) + 0.01312 x(2,2) >= 1
cut_clique_3(6,2):  0.05129 x(0,2) + 0.01500 x(1,2) + 0.02586 x(2,2) >= 1
cut_clique_3(7,2):  0.04923 x(0,2) + 0.01500 x(1,2) + 0.02586 x(2,2) >= 1
cut_clique_3(8,2):  0.04923 x(0,2) + 0.01500 x(1,2) + 0.02638 x(2,2) >= 1
cut_clique_3(9,2):  0.04923 x(0,2) + 0.01500 x(1,2) + 0.02559 x(2,2) >= 1
cut_clique_3(10,2):  0.05022 x(0,2) + 0.01500 x(1,2) + 0.02559 x(2,2) >= 1
cut_clique_3(11,2):  0.05237 x(0,2) + 0.02781 x(1,2) + 0.01193 x(2,2) >= 1
cut_clique_3(12,2):  0.04972 x(0,2) + 0.01500 x(1,2) + 0.02815 x(2,2) >= 1
cut_clique_3(13,2):  0.05021 x(0,2) + 0.01500 x(1,2) + 0.02815 x(2,2) >= 1
cut_clique_3(14,2):  0.05021 x(0,2) + 0.01305 x(1,2) + 0.02815 x(2,2) >= 1
cut_clique_3(15,2):  0.04808 x(0,2) + 0.01335 x(1,2) + 0.02960 x(2,2) >= 1
cut_clique_3(16,2):  0.04568 x(0,2) + 0.01335 x(1,2) + 0.02960 x(2,2) >= 1
cut_clique_3(17,2):  0.04568 x(0,2) + 0.01335 x(1,2) + 0.03049 x(2,2) >= 1
cut_clique_3(18,2):  0.04568 x(0,2) + 0.01268 x(1,2) + 0.03049 x(2,2) >= 1
cut_clique_3(19,2):  0.04568 x(0,2) + 0.01268 x(1,2) + 0.03232 x(2,2) >= 1
cut_clique_3(20,2):  0.04568 x(0,2) + 0.01268 x(1,2) + 0.03458 x(2,2) >= 1
cut_clique_3(21,2):  0.04568 x(0,2) + 0.01104 x(1,2) + 0.03458 x(2,2) >= 1
cut_clique_3(22,2):  0.03804 x(0,2) + 0.01143 x(1,2) + 0.04033 x(2,2) >= 1
cut_clique_3(23,2):  0.04962 x(0,2) + 0.02621 x(1,2) + 0.01496 x(2,2) >= 1
cut_clique_3(24,2):  0.04499 x(0,2) + 0.01916 x(1,2) + 0.02196 x(2,2) >= 1
cut_clique_3(25,2):  0.04962 x(0,2) + 0.02621 x(1,2) + 0.01437 x(2,2) >= 1
cut_clique_3(26,2):  0.04049 x(0,2) + 0.02337 x(1,2) + 0.02152 x(2,2) >= 1
cut_clique_3(27,2):  0.04499 x(0,2) + 0.02337 x(1,2) + 0.02196 x(2,2) >= 1
cut_clique_3(28,2):  0.04499 x(0,2) + 0.02050 x(1,2) + 0.02196 x(2,2) >= 1
cut_clique_3(29,2):  0.04656 x(0,2) + 0.01986 x(1,2) + 0.02152 x(2,2) >= 1
cut_clique_3(30,2):  0.05112 x(0,2) + 0.01916 x(1,2) + 0.02196 x(2,2) >= 1
cut_clique_3(31,2):  0.04084 x(0,2) + 0.00906 x(1,2) + 0.04317 x(2,2) >= 1
cut_clique_3(32,2):  0.04206 x(0,2) + 0.00788 x(1,2) + 0.04317 x(2,2) >= 1
cut_clique_3(33,2):  0.05290 x(0,2) + 0.02542 x(1,2) + 0.01312 x(2,2) >= 1
cut_clique_3(34,2):  0.04206 x(0,2) + 0.00875 x(1,2) + 0.04086 x(2,2) >= 1
cut_clique_3(35,2):  0.04206 x(0,2) + 0.00901 x(1,2) + 0.04086 x(2,2) >= 1
cut_clique_3(36,2):  0.04206 x(0,2) + 0.00991 x(1,2) + 0.04086 x(2,2) >= 1
cut_clique_3(37,2):  0.04301 x(0,2) + 0.00892 x(1,2) + 0.04086 x(2,2) >= 1
cut_clique_3(38,2):  0.04301 x(0,2) + 0.00892 x(1,2) + 0.04004 x(2,2) >= 1
cut_clique_3(39,2):  0.04301 x(0,2) + 0.00946 x(1,2) + 0.04004 x(2,2) >= 1
cut_clique_3(40,2):  0.04962 x(0,2) + 0.02621 x(1,2) + 0.01408 x(2,2) >= 1
cut_clique_3(41,2):  0.05075 x(0,2) + 0.02066 x(1,2) + 0.02152 x(2,2) >= 1
cut_clique_3(42,2):  0.04962 x(0,2) + 0.02621 x(1,2) + 0.01609 x(2,2) >= 1
cut_clique_3(43,2):  0.05112 x(0,2) + 0.01916 x(1,2) + 0.02034 x(2,2) >= 1
cut_clique_3(44,2):  0.04210 x(0,2) + 0.01235 x(1,2) + 0.03792 x(2,2) >= 1
cut_clique_3(45,2):  0.04210 x(0,2) + 0.01100 x(1,2) + 0.03792 x(2,2) >= 1
cut_clique_3(46,2):  0.04210 x(0,2) + 0.01056 x(1,2) + 0.03792 x(2,2) >= 1
cut_clique_3(47,2):  0.04210 x(0,2) + 0.01056 x(1,2) + 0.03641 x(2,2) >= 1
cut_clique_3(48,2):  0.04210 x(0,2) + 0.01003 x(1,2) + 0.03641 x(2,2) >= 1
cut_clique_3(49,2):  0.05376 x(0,2) + 0.01142 x(1,2) + 0.02834 x(2,2) >= 1
Bounds
 0 <= C <= 44
 14 <= x(0,0) <= 43
 0 <= y(0,1,0) <= 1
 0 <= y(1,0,0) <= 1
 0 <= v(0,1,0)p <= 36
 0 <= v(0,1,0)n <= 23
 0 <= v(1,0,0)p <= 19
 0 <= v(1,0,0)n <= 40
 0 <= u(0,1,0)p <= 440
 0 <= u(0,1,0)n <= 440
 0 <= u(1,0,0)p <= 440
 0 <= u(1,0,0)n <= 440
 0 <= y(0,2,0) <= 1
 0 <= y(2,0,0) <= 1
 0 <= v(0,2,0)p <= 28
 0 <= v(0,2,0)n <= 30
 0 <= v(2,0,0)p <= 27
 0 <= v(2,0,0)n <= 31
 0 <= u(0,2,0)p <= 440
 0 <= u(0,2,0)n <= 440
 0 <= u(2,0,0)p <= 440
 0 <= u(2,0,0)n <= 440
 4 <= x(1,0) <= 34
 0 <= y(1,2,0) <= 1
 0 <= y(2,1,0) <= 1
 0 <= v(1,2,0)p <= 19
 0 <= v(1,2,0)n <= 40
 0 <= v(2,1,0)p <= 35
 0 <= v(2,1,0)n <= 24
 0 <= u(1,2,0)p <= 440
 0 <= u(1,2,0)n <= 440
 0 <= u(2,1,0)p <= 440
 0 <= u(2,1,0)n <= 440
 13 <= x(2,0) <= 42
 0 <= x(0,1) <= 29
 0 <= y(0,1,1) <= 1
 0 <= y(1,0,1) <= 1
 0 <= v(0,1,1)p <= 25
 0 <= v(0,1,1)n <= 34
 0 <= v(1,0,1)p <= 23
 0 <= v(1,0,1)n <= 36
 0 <= u(0,1,1)p <= 440
 0 <= u(0,1,1)n <= 440
 0 <= u(1,0,1)p <= 440
 0 <= u(1,0,1)n <= 440
 0 <= y(0,2,1) <= 1
 0 <= y(2,0,1) <= 1
 0 <= v(0,2,1)p <= 22
 0 <= v(0,2,1)n <= 36
 0 <= v(2,0,1)p <= 22
 0 <= v(2,0,1)n <= 36
 0 <= u(0,2,1)p <= 440
 0 <= u(0,2,1)n <= 440
 0 <= u(2,0,1)p <= 440
 0 <= u(2,0,1)n <= 440
 0 <= x(1,1) <= 30
 0 <= y(1,2,1) <= 1
 0 <= y(2,1,1) <= 1
 0 <= v(1,2,1)p <= 23
 0 <= v(1,2,1)n <= 36
 0 <= v(2,1,1)p <= 25
 0 <= v(2,1,1)n <= 34
 0 <= u(1,2,1)p <= 440
 0 <= u(1,2,1)n <= 440
 0 <= u(2,1,1)p <= 440
 0 <= u(2,1,1)n <= 440
 0 <= x(2,1) <= 29
 7 <= x(0,2) <= 36
 0 <= y(0,1,2) <= 1
 0 <= y(1,0,2) <= 1
 0 <= v(0,1,2)p <= 22
 0 <= v(0,1,2)n <= 37
 0 <= v(1,0,2)p <= 23
 0 <= v(1,0,2)n <= 36
 0 <= u(0,1,2)p <= 440
 0 <= u(0,1,2)n <= 440
 0 <= u(1,0,2)p <= 440
 0 <= u(1,0,2)n <= 440
 0 <= y(0,2,2) <= 1
 0 <= y(2,0,2) <= 1
 0 <= v(0,2,2)p <= 23
 0 <= v(0,2,2)n <= 35
 0 <= v(2,0,2)p <= 22
 0 <= v(2,0,2)n <= 36
 0 <= u(0,2,2)p <= 440
 0 <= u(0,2,2)n <= 440
 0 <= u(2,0,2)p <= 440
 0 <= u(2,0,2)n <= 440
 7 <= x(1,2) <= 37
 0 <= y(1,2,2) <= 1
 0 <= y(2,1,2) <= 1
 0 <= v(1,2,2)p <= 24
 0 <= v(1,2,2)n <= 35
 0 <= v(2,1,2)p <= 22
 0 <= v(2,1,2)n <= 37
 0 <= u(1,2,2)p <= 440
 0 <= u(1,2,2)n <= 440
 0 <= u(2,1,2)p <= 440
 0 <= u(2,1,2)n <= 440
 7 <= x(2,2) <= 36
End
